%chk=CURCUMIN-OPT-FREQ-Prod-1-M06-2X-6-311+G-D-363.chk
# opt freq=noraman M062X/6-311+g(d) scrf=(smd,solvent=generic,read) temperature=363.15

Reagente 1

0 2
 C                  2.22440100    0.62301700    0.93742600
 H                  1.77507600    1.58421500    1.16903300
 C                  1.51986300   -0.48763500    1.23126300
 H                  1.89082200   -1.48961600    1.04955500
 C                  0.17473200   -0.48987600    1.83177500
 O                 -0.41367500   -1.54930500    1.99221100
 C                  3.55424100    0.75016600    0.34520700
 C                  4.19994600    1.99294800    0.45992300
 C                  4.29087500   -0.25275900   -0.31193400
 C                  5.47915700    2.21327000   -0.02927200
 H                  3.67784100    2.80451200    0.95393100
 C                  5.56781100   -0.06997400   -0.82595200
 H                  5.33347100   -2.77180100    3.57720200
 C                  6.17597200    1.19278000   -0.67442400
 H                  5.93917400    3.19145400    0.07704100
 O                  7.41255200    1.34685800   -1.19968300
 H                  7.72489100    2.25118400   -1.05180100
 O                  6.14744500   -1.07986500   -1.52896900
 C                  7.29751000   -1.70111100   -0.91580600
 H                  7.03895800   -2.08701100    0.07296400
 H                  7.56903900   -2.52682800   -1.57120300
 H                  8.12872100   -0.99922200   -0.84253300
 C                 -3.14626700    0.22912500    0.97184100
 H                 -2.74839700   -0.43154100    1.73701600
 C                 -2.40181500    1.28660000    0.58181900
 H                 -2.74365100    1.96047200   -0.19868700
 C                 -1.08271200    1.63697200    1.11258600
 O                 -0.45886500    2.58138200    0.64469500
 C                 -4.45179100   -0.16343800    0.45979500
 C                 -5.06577500   -1.31372400    0.98006900
 C                 -5.14378300    0.56079100   -0.53114000
 C                 -6.30997200   -1.73090600    0.52460600
 H                 -4.55851800   -1.89210100    1.74519500
 C                 -6.38361300    0.15764800   -0.99514000
 H                 -4.71729000    1.45535800   -0.97033200
 C                 -6.97775600   -1.01033600   -0.46606800
 H                 -6.76661100   -2.62984500    0.93037300
 O                 -8.18195300   -1.38552400   -0.96645800
 H                 -8.47768500   -2.19761500   -0.53116100
 O                 -6.98088600    0.86328200   -2.00582800
 C                 -8.17315000    1.57893300   -1.64677100
 H                 -7.96809600    2.29037500   -0.84009100
 H                 -8.47742200    2.12456600   -2.53955200
 H                 -8.97295100    0.89994800   -1.34591500
 C                 -0.47840900    0.82559300    2.26939000
 H                 -1.24466800    0.56799400    2.99999700
 H                  0.25382600    1.47044000    2.75522800
 O                  4.09305500   -2.51234600    0.14692500
 O                  2.89929800   -1.68818400   -1.46753500
 N                  3.71298600   -1.59340500   -0.56489700

Eps=7
EpsInf=1.85341
HbondAcidity=0
HbondBasicity=0.48
SurfaceTensionAtInterface=60.62
CarbonAromaticity=0
ElectronegativeHalogenicity=0

