#
! Opt NumFreq wb97M-V 6-311+G(d) CPCM RIJDX
%maxcore 2000
%cpcm
epsilon 7 # Dielectric constant
refrac 1.85341 # Refractive index
end
%FREQ temp 363.15 #temperature is 363.15K
end

* xyz 0 2
  C   1.86873725086433      1.48587758242765      1.56127220049713
  H   1.70613718104801      2.54912977829024      1.71678707406630
  C   1.16600865437978      0.58698587568159      2.25874401725608
  H   1.36624609716545     -0.47910250399434      2.18854073718478
  C   0.09499012048174      0.94488175880565      3.21464387872287
  O   -0.30689651209913      0.11914864781773      4.01552046196525
  C   2.92372514271669      1.15283184811599      0.58923279783151
  C   4.08987077271385      1.91628518068314      0.53836936502696
  C   2.84871096677033      0.07869838636900     -0.29924496634116
  C   5.12545815867193      1.60396042511797     -0.33192181445949
  H   4.19141671664867      2.76528081519629      1.20577629358133
  C   3.85596338785582     -0.25988500439012     -1.18945365055545
  H   4.77966123291566     -1.55794318477504      2.82866535113829
  C   5.01942350888995      0.52228475319739     -1.19986196314978
  H   6.02337924978841      2.21413388510213     -0.35226926895336
  O   5.97219137365276      0.17975756412378     -2.09916196243813
  H   6.72462645575914      0.78338503076290     -2.05048890034221
  O   3.65950217348872     -1.26287111373128     -2.08944074618259
  C   4.40295153734615     -2.46316566833476     -1.79844725567987
  H   4.09155229390120     -2.86477277323883     -0.83229766164868
  H   4.15659679027908     -3.16634279964180     -2.59042073814511
  H   5.47418538398498     -2.25885543518635     -1.80060160106519
  C   -2.51335826188884      0.92181774630993      1.48056989679469
  H   -2.39068873672159      0.65909664288843      2.52891322262120
  C   -1.85576817193484      1.98495496087584      0.99118354965306
  H   -1.97471942572601      2.31180004709742     -0.03778420983182
  C   -0.93590311646287      2.81167541160679      1.78529393821081
  O   -0.50603043687800      3.86428172533898      1.33769098486286
  C   -3.42612818189808      0.04533968713070      0.74277319779426
  C   -4.09703919604803     -0.96461520574300      1.43628154786176
  C   -3.65077167609937      0.16965740650448     -0.63642404831132
  C   -4.96827257327400     -1.82684012376878      0.78181450644137
  H   -3.93366399125212     -1.08208236523447      2.50313120664485
  C   -4.51337073833516     -0.68319682155989     -1.29619729868071
  H   -3.14727233552909      0.92786049891550     -1.22729669387390
  C   -5.18035667836947     -1.69609697382270     -0.58617114190179
  H   -5.47993769808642     -2.61324223765019      1.32941166027420
  O   -6.00123076248845     -2.51344543748207     -1.29502651019957
  H   -6.40673858808621     -3.17025811974728     -0.71491113895742
  O   -4.67733348712315     -0.57399663188127     -2.65594160393694
  C   -5.91574397830413      0.04299912601661     -3.03065090552228
  H   -5.95851486838341      1.06582260695067     -2.64560414129558
  H   -5.93586906018215      0.05928909328581     -4.11862023392185
  H   -6.76527515061422     -0.53134776448567     -2.65557650884322
  C   -0.50389159178790      2.34369483535683      3.17272189692409
  H   -1.35697585787150      2.35644225755838      3.85561917096861
  H   0.23200578236957      3.06303138583669      3.54263120368933
  O   1.68159143528035     -1.89552573902881     -0.04570005314388
  O   0.61763629938270     -0.18435826001354     -0.81502768401492
  N   1.61745910908889     -0.73090079965434     -0.39245645861536
*

