%chk=CURCUMIN-OPT-FREQ-Reag-M06-2X-6-311+G-D-363.chk
# opt=(calcfc) freq=noraman M062X/6-311+g(d) scrf=(smd,solvent=generic,read) temperature=363.15

XXX

0 2
C     -2.672154    0.261194   -0.560955
H     -2.260391    0.527123   -1.532406
C     -1.928833    0.466564    0.537644
H     -2.290079    0.221244    1.531907
C     -0.571350    1.038889    0.520359
O      0.038690    1.204008    1.558693
C     -4.021531   -0.300923   -0.611776
C     -4.643214   -0.448180   -1.854759
C     -4.724197   -0.704253    0.535071
C     -5.925704   -0.972282   -1.957913
H     -4.119417   -0.145121   -2.755193
C     -6.000217   -1.225401    0.445059
H     -4.292477   -0.611584    1.525672
C     -6.615640   -1.357356   -0.813944
H     -6.400238   -1.075951   -2.929190
O     -7.873923   -1.853219   -0.838843
H     -8.200621   -1.894331   -1.747641
O     -6.679137   -1.566730    1.578728
C     -6.790615   -2.975919    1.779650
H     -5.797765   -3.420447    1.894953
H     -7.360369   -3.114753    2.696785
H     -7.315230   -3.450604    0.948357
C      2.687542    0.092908   -0.358524
H      1.775893   -0.496136   -0.434486
C      2.611487    1.429236   -0.452482
H      3.491114    2.060124   -0.367126
C      1.354938    2.168513   -0.635445
O      1.352956    3.386795   -0.637157
C      3.898905   -0.699604   -0.149629
C      3.791213   -2.091330   -0.087394
C      5.172503   -0.124567   -0.014060
C      4.911318   -2.889838    0.107342
H      2.816873   -2.557473   -0.189483
C      6.293382   -0.908121    0.180343
H      5.313801    0.950261   -0.048880
C      6.166320   -2.308285    0.247249
H      4.812211   -3.969816    0.161325
O      7.295645   -3.023369    0.458345
H      7.092637   -3.967625    0.495140
O      7.513668   -0.321637    0.354068
C      8.378703   -0.451010   -0.774214
H      7.937929    0.040390   -1.646571
H      9.310895    0.045035   -0.509474
H      8.574845   -1.500899   -1.000017
C      0.043948    1.425123   -0.821581
H      0.159568    0.526622   -1.433138
H     -0.638777    2.090010   -1.353846
O     -1.731848    4.268303   -0.193717
O     -0.460748    4.743513    1.511410
N     -0.964809    4.070069    0.685837

Eps=7
EpsInf=1.85341
HbondAcidity=0
HbondBasicity=0.48	
SurfaceTensionAtInterface=60.62
CarbonAromaticity=0
ElectronegativeHalogenicity=0

