%oldchk=/home/natrosa/MOSSRI/REACAO-2/CURCUMIN-OPT-FREQ-TS2-M06-2X-6-311G-D-298.chk
%chk=CURCUMIN-TS-2-M062X-6-311G-D-298-NBO.chk
# pop=nbo M062X/6-311g(d) scrf=(smd,solvent=generic,read) temperature=298.15 Geom=Check Guess=Read

Reagente 1

0 2

Eps=7
EpsInf=1.85341
HbondAcidity=0
HbondBasicity=0.48
SurfaceTensionAtInterface=60.62
CarbonAromaticity=0
ElectronegativeHalogenicity=0


