%chk=CURCUMIN-OPT-FREQ-TS2-M06-2X-6-311G-D-298.chk
# opt=(calcfc) freq=noraman M062X/6-311g(d) scrf=(smd,solvent=generic,read) temperature=298.15 SCF=(MaxCycle=500)

XXX

0 2
C     -2.706063    0.255079   -0.199328
H     -2.413647    0.953447   -0.979154
C     -1.832525   -0.022744    0.792593
H     -2.091485   -0.724356    1.580170
C     -0.467715    0.508197    0.941029
O      0.251613    0.097224    1.860741
C     -4.044642   -0.291176   -0.370933
C     -4.807618    0.126191   -1.473548
C     -4.619859   -1.229182    0.510014
C     -6.091430   -0.359650   -1.682865
H     -4.390562    0.845057   -2.171226
C     -5.898547   -1.721223    0.315258
H     -4.080067   -1.586109    1.379766
C     -6.652908   -1.277794   -0.794985
H     -6.672929   -0.018250   -2.534810
O     -7.910772   -1.764431   -0.936055
H     -8.323230   -1.382950   -1.724018
O     -6.432848   -2.578340    1.239615
C     -6.646625   -3.926444    0.791993
H     -5.706524   -4.373609    0.452807
H     -7.015406   -4.475895    1.657622
H     -7.386988   -3.970264   -0.008702
C      2.695606    0.060859   -0.022810
H      1.786470   -0.526532   -0.090764
C      2.586543    1.408258    0.050277
H      3.464509    2.045912    0.085717
C      1.342031    2.150652   -0.021029
O      1.384803    3.391378   -0.160254
C      3.915058   -0.724381   -0.036111
C      3.812047   -2.122765   -0.133519
C      5.206478   -0.161500    0.035858
C      4.943503   -2.925505   -0.146594
H      2.831461   -2.583220   -0.191924
C      6.343265   -0.948854    0.025795
H      5.348594    0.909989    0.115219
C      6.214632   -2.354729   -0.061623
H      4.846963   -4.005805   -0.210855
O      7.351444   -3.090582   -0.044242
H      7.134844   -4.032121   -0.103107
O      7.569150   -0.356935    0.167124
C      8.420854   -0.399991   -0.989296
H      7.933525    0.078878   -1.844700
H      9.316487    0.160809   -0.724072
H      8.696302   -1.424360   -1.246130
C      0.002617    1.536218    0.012995
H     -0.727169    2.051671   -0.600355
H      0.074762    4.430422   -0.390325
O     -0.678967    5.055408   -0.568489
O     -2.105655    6.090339    0.628115
N     -1.192038    5.342529    0.685339

Eps=7
EpsInf=1.85341
HbondAcidity=0
HbondBasicity=0.48	
SurfaceTensionAtInterface=60.62
CarbonAromaticity=0
ElectronegativeHalogenicity=0

