%chk=CURCUMIN-OPT-FREQ-Reag-1-B3LYP-6-311G-D-298.chk
# opt freq b3lyp/6-311g(d) scrf=(smd,solvent=generic,read) temperature=298.15

IRC - reacao 1

0 2
 C                  2.21929600    0.93169200    0.84115600
 H                  1.78246300    1.92589600    0.84019800
 C                  1.49186700   -0.08781300    1.37487400
 H                  1.86636600   -1.10488200    1.41841700
 C                  0.16380000    0.05169900    1.97086000
 O                 -0.42034100   -0.93280200    2.40972600
 C                  3.53072800    0.87225600    0.27686500
 C                  4.22944600    2.05402500    0.04828300
 C                  4.31672700   -0.40778300    0.14350500
 C                  5.54528300    2.08624700   -0.40981900
 H                  3.73174000    2.99487300    0.25970900
 C                  5.56531000   -0.31237000   -0.70180700
 H                  4.61765800   -0.73573300    1.14906700
 C                  6.20355100    0.89797200   -0.81669400
 H                  6.05429200    3.03848600   -0.52266400
 O                  7.45465200    0.91846400   -1.35102200
 H                  7.75418900    1.83241300   -1.45208100
 O                  6.05975900   -1.47291600   -1.18960000
 C                  7.17986700   -2.05473200   -0.48642800
 H                  6.91332200   -2.25767600    0.55373000
 H                  7.39539700   -2.99242500   -0.99564600
 H                  8.04865800   -1.39748500   -0.53296600
 C                 -3.12711900    0.50766800    0.91716000
 H                 -2.72907400    0.06112300    1.82396600
 C                 -2.38979700    1.44713400    0.28678200
 H                 -2.72666800    1.90450300   -0.63917900
 C                 -1.08190200    1.93297100    0.73320200
 O                 -0.45878000    2.74124300    0.05569500
 C                 -4.42107200   -0.01872800    0.50558800
 C                 -5.02183700   -1.02214200    1.28204900
 C                 -5.11337000    0.43450200   -0.63479500
 C                 -6.25322400   -1.56031200    0.93022700
 H                 -4.51344000   -1.39080600    2.16699900
 C                 -6.34061100   -0.09197300   -0.99786100
 H                 -4.69679000    1.20666200   -1.27155600
 C                 -6.92068700   -1.11103600   -0.20938500
 H                 -6.69991800   -2.34485300    1.53529500
 O                 -8.11188000   -1.61900900   -0.61498500
 H                 -8.39876800   -2.30922100   -0.00044700
 O                 -6.93919000    0.33959100   -2.15196000
 C                 -8.14427100    1.10146000   -1.98064500
 H                 -7.95422000    1.99259400   -1.37348900
 H                 -8.45321100    1.40587500   -2.98027300
 H                 -8.93449700    0.50397500   -1.52248900
 C                 -0.49436400    1.43495200    2.06153900
 H                 -1.27158500    1.36298400    2.82201200
 H                  0.23056900    2.18237600    2.38520600
 O                  3.76393900   -2.67563700    0.28593500
 O                  2.72620000   -1.54420700   -1.24328800
 N                  3.51510700   -1.64610500   -0.32415700

