%chk=CURCUMIN-OPT-FREQ-Reag-B3LYP-6-311+G-D-298.chk
# opt=(calcfc) freq=noraman b3lyp/6-311+g(d) scrf=(smd,solvent=generic,read) temperature=298.15 SCF=(MaxCycle=500)

XXX

0 2
C         -2.75163        0.25606       -0.31256
H         -2.34134        0.67513       -1.22823
C         -1.99828        0.29842        0.80551
H         -2.36468       -0.09134        1.75099
C         -0.64395        0.86190        0.89769
O         -0.06041        0.88735        1.97146
C         -4.09393       -0.29382       -0.45735
C         -4.73016       -0.20751       -1.70536
C         -4.79089       -0.92173        0.59389
C         -6.01094       -0.71145       -1.89517
H         -4.21790        0.26762       -2.53569
C         -6.06701       -1.42918        0.41989
H         -4.35005       -1.01921        1.57953
C         -6.69403       -1.31893       -0.84156
H         -6.49382       -0.62467       -2.86491
O         -7.95473       -1.80672       -0.96221
H         -8.27358       -1.66812       -1.86524
O         -6.72311       -1.97209        1.49262
C         -6.94453       -3.38998        1.43455
H         -5.99345       -3.92558        1.34812
H         -7.42535       -3.65879        2.37468
H         -7.59748       -3.65990        0.60258
C          2.69831       -0.00374       -0.18498
H          1.79246       -0.57805       -0.36315
C          2.59408        1.33235       -0.03050
H          3.46827        1.94796        0.16107
C          1.34582        2.09857       -0.08687
O          1.36892        3.31277        0.08208
C          3.91252       -0.80880       -0.13937
C          3.81516       -2.19482       -0.33840
C          5.19313       -0.26582        0.08483
C          4.94238       -3.00637       -0.30506
H          2.84295       -2.64330       -0.51570
C          6.32496       -1.06167        0.12327
H          5.33034        0.79686        0.24858
C          6.20215       -2.45606       -0.06848
H          4.84811       -4.07890       -0.45268
O          7.33290       -3.20354        0.00246
H          7.11712       -4.13604       -0.13948
O          7.53527       -0.48905        0.41232
C          8.48497       -0.46287       -0.66454
H          8.07863        0.07982       -1.52439
H          9.35778        0.06692       -0.28389
H          8.77537       -1.47051       -0.96749
C          0.01859        1.40610       -0.37251
H          0.13030        0.59051       -1.09246
H         -0.64062        2.14510       -0.83242
O         -1.35670        4.80617       -0.82251
O         -0.28570        5.93241        0.72862
N         -0.81926        4.98889        0.23143

Eps=7
EpsInf=1.85341
HbondAcidity=0
HbondBasicity=0.48	
SurfaceTensionAtInterface=60.62
CarbonAromaticity=0
ElectronegativeHalogenicity=0

