! Opt NumFreq wb97M-V 6-311+G(d) CPCM RIJDX
%maxcore 2000
%cpcm
epsilon 7 # Dielectric constant
refrac 1.85341 # Refractive index
end
%FREQ temp 363.15 # temperature is 363.15K
end
* xyz 0 2
  C   2.04282949689680      1.10642109126677      1.25857610365745
  H   1.76183593521287      2.14170104494026      1.43154019110643
  C   1.30526771624491      0.11472627501997      1.80921972620100
  H   1.56593344286623     -0.93355467593577      1.69387454800927
  C   0.11411159771150      0.34620422003843      2.63771879464600
  O   -0.41598847745808     -0.58485244340264      3.22583016099370
  C   3.20316560569868      0.92523381357435      0.43026345846668
  C   3.91212072996212      2.01696928113518     -0.03409745785275
  C   3.63526190449968     -0.45144102892005      0.03205421081999
  C   5.04606229374425      1.88019300823798     -0.83227494272680
  H   3.57759701970571      3.01257447405671      0.23941772688480
  C   4.90807518751008     -0.52831596027968     -0.73863565136708
  H   3.65906568139434     -1.15373844949862      0.86931648116544
  C   5.54350622062813      0.59453551845194     -1.17880424482879
  H   5.56949874227606      2.76068088402195     -1.19080706231165
  O   6.66116761654444      0.44316436272899     -1.93984430973144
  H   7.04244143670158      1.30096809416374     -2.16404852710624
  O   5.30588589646416     -1.79158007738608     -1.04573846613097
  C   6.56284717244152     -2.20010430502534     -0.47166706330310
  H   6.51226273639462     -2.12917888915169      0.61738736588211
  H   6.70429555047884     -3.23671564343281     -0.76822789978980
  H   7.37764710816799     -1.58571591942618     -0.85323561321858
  C   -2.81292411022224      0.67923341290020      1.26148994307348
  H   -2.55794439327277      0.30613264270537      2.25025603059031
  C   -2.08597939494460      1.67610445991667      0.73094201577463
  H   -2.30296602892540      2.08724705423812     -0.25083170681093
  C   -0.95296196834400      2.31432314352932      1.41434793151103
  O   -0.39852794245651      3.28436255910528      0.91864478298445
  C   -3.95425288832921      0.00583541633838      0.63692293826451
  C   -4.54696806318934     -1.06999803980805      1.30244835041836
  C   -4.47922283764955      0.39232550401018     -0.60532809719542
  C   -5.62263836884771     -1.75212265468186      0.74674040744698
  H   -4.15733419542046     -1.38429299338384      2.26577689765757
  C   -5.54888334924658     -0.27779249596514     -1.16500134587500
  H   -4.06204205873653      1.22383338688412     -1.16365520569301
  C   -6.12821108528327     -1.36560399787401     -0.48967891713528
  H   -6.06980703624693     -2.59428266011061      1.26722167712356
  O   -7.16593832728664     -1.99267103098695     -1.10111378967094
  H   -7.48980384789079     -2.72114121096250     -0.55635284731517
  O   -6.01525971677166      0.08995459757574     -2.40406134481266
  C   -7.24172771510735      0.83033283211333     -2.35146647853884
  H   -7.09491335502391      1.76373511298960     -1.80060666187453
  H   -7.51376163506342      1.05103464540597     -3.38179208593447
  H   -8.03140615377513      0.24119970293242     -1.88072069808259
  C   -0.46191582666554      1.75448868905079      2.74818238312848
  H   -1.28123798601803      1.71653604321726      3.46819660393111
  H   0.29720951560111      2.44070106973071      3.12902689230574
  O   2.11865007573697     -2.17775173728270     -0.60179563083033
  O   2.17748374074447     -0.42267547034219     -1.85060501508087
  N   2.53196433854859     -1.07423265642301     -0.89019555882585
*

