%oldchk=/home/natrosa/MOSSRI/REACAO-1/M06-2X-6-311G-D/CURCUMIN-OPT-FREQ-Reag-1-M06-2X-6-311G-D-298-cont.chk
%chk=CURCUMIN-OPT-FREQ-Reag-1-M06-2X-6-311G-D-363.chk
# opt=loose freq=noraman M062X/6-311g(d) scrf=(smd,solvent=generic,read) temperature=363.15 Geom=Check Guess=Rea

Reagente 1 

0 2

Eps=7
EpsInf=1.85341
HbondAcidity=0
HbondBasicity=0.48
SurfaceTensionAtInterface=60.62
CarbonAromaticity=0
ElectronegativeHalogenicity=0

