! Opt NumFreq wb97M-V 6-311G(d) CPCM RIJDX
%maxcore 2000
%cpcm
epsilon 7 # Dielectric constant
refrac 1.85341 # Refractive index
end
%FREQ TEMP 363.15 END

* xyz 0 2
  C   -2.73780852521436      0.17329844620604     -0.26232766538822
  H   -2.46577081027783      1.00695062768864     -0.90572777885410
  C   -1.77354257348339     -0.47854993983852      0.40308512916808
  H   -1.99931885650873     -1.26504056951097      1.11767105421939
  C   -0.34510066004763     -0.10347374443668      0.36175879704543
  O   0.41465298389767     -0.45413399599246      1.26462546366907
  C   -4.17931809890801     -0.07833527129058     -0.18569771083377
  C   -5.05342845111864      0.86464855589979     -0.72961729912944
  C   -4.72215019949468     -1.22339581241298      0.41509671840491
  C   -6.42995390401196      0.68540634918876     -0.66308426112211
  H   -4.65264580363140      1.76224074290755     -1.19025493016703
  C   -6.08803608216050     -1.41193020553381      0.48392101219181
  H   -4.08924881389535     -1.99423186041702      0.84282723785436
  C   -6.95798068828445     -0.44927367934852     -0.05705946649818
  H   -7.10291754776093      1.43092028228711     -1.07736896238582
  O   -8.28890635173829     -0.68742981982088      0.05220613920802
  H   -8.78510723923426      0.03070692248250     -0.35798881228951
  O   -6.59268958412137     -2.52348687904708      1.11241435340773
  C   -7.10948920033911     -3.50416710636805      0.20579925099152
  H   -6.32129251485237     -3.85235504058390     -0.46837704491113
  H   -7.45942273961753     -4.33404870229873      0.81701985450656
  H   -7.94137240025948     -3.10094824297120     -0.37499302620828
  C   2.96357161992215     -0.22932500412977     -0.36001551396605
  H   2.15561704718015     -0.94747111246505     -0.46844015624587
  C   2.67220452794134      1.07993378381803     -0.45065704785545
  H   3.42671769454811      1.85648905541688     -0.37380662754375
  C   1.33320061826074      1.57080461700844     -0.72909265096629
  O   1.13825176335273      2.76713698121122     -0.97455778645291
  C   4.27768576591755     -0.81704274619441     -0.12039641685580
  C   4.38670807255293     -2.20682239604339     -0.03086732038734
  C   5.44114289597002     -0.04506552197146      0.03031632578294
  C   5.61136028552634     -2.81439604593952      0.21334410907919
  H   3.50011488961443     -2.82248610532204     -0.14547487838224
  C   6.66157885144322     -0.63774059435874      0.27702722908267
  H   5.41684362703130      1.03787718521404     -0.02917857235168
  C   6.75466256241106     -2.03855604555215      0.37436185820032
  H   5.68559945063381     -3.89523838079067      0.29049328998448
  O   7.97748126924044     -2.55783284174011      0.63395320566231
  H   7.92290119022290     -3.51960806964729      0.68615343785637
  O   7.77399078656338      0.14204140699667      0.46854050195151
  C   8.67594252884778      0.13187939662573     -0.64451292381168
  H   8.17663477567739      0.50780733065701     -1.54234962746389
  H   9.49794331611925      0.79408327465126     -0.37950591133230
  H   9.06001939995178     -0.87342378897141     -0.82821556660470
  C   0.13472544900821      0.69567999858072     -0.76383576370511
  H   -0.49445038341145      0.82029345006050     -1.63711473072331
  H   -0.53572243670684      3.25815142916150     -1.07628682749307
  O   -1.52202051425809      3.33025468273683     -1.05461393054500
  O   -3.00069938599487      3.54812074298298      0.42992172198782
  N   -1.83381560650315      3.50990426121527      0.26710652021954
*
