! Opt NumFreq wb97M-V 6-311G(d) CPCM RIJDX
%maxcore 2000
%cpcm
epsilon 7 # Dielectric constant
refrac 1.85341 # Refractive index
end
%FREQ TEMP 363.15 END

* xyz 0 2
C     -2.638131    0.357126   -0.513960
H     -2.221261    0.709247   -1.455490
C     -1.932796    0.537316    0.611276
H     -2.298013    0.214541    1.582130
C     -0.611257    1.185604    0.659491
O     -0.031548    1.329397    1.722046
C     -3.952460   -0.280228   -0.633418
C     -4.540297   -0.384908   -1.895040
C     -4.647956   -0.800705    0.468579
C     -5.784778   -0.981341   -2.059911
H     -4.020401    0.008137   -2.763246
C     -5.886646   -1.390205    0.317188
H     -4.241548   -0.747125    1.473173
C     -6.468970   -1.484960   -0.959339
H     -6.234826   -1.051936   -3.046092
O     -7.691908   -2.065271   -1.038819
H     -7.990605   -2.082326   -1.955889
O     -6.563750   -1.847699    1.420306
C     -6.565253   -3.275270    1.535821
H     -5.541081   -3.652505    1.611335
H     -7.108264   -3.509171    2.449658
H     -7.067456   -3.736605    0.683188
C      2.568371    0.171390   -0.273176
H      1.622850   -0.352458   -0.399448
C      2.570141    1.511260   -0.250121
H      3.481647    2.084534   -0.106457
C      1.358790    2.338294   -0.371952
O      1.429204    3.551044   -0.259110
C      3.730038   -0.711481   -0.134817
C      3.531931   -2.093049   -0.145702
C      5.040981   -0.229818    0.000369
C      4.600248   -2.972776   -0.017878
H      2.526873   -2.489680   -0.251285
C      6.109002   -1.094417    0.129963
H      5.256671    0.833360    0.015185
C      5.894335   -2.484055    0.121346
H      4.432164   -4.045952   -0.020892
O      6.984560   -3.278883    0.260075
H      6.722887   -4.206667    0.223936
O      7.375825   -0.593956    0.302635
C      8.191188   -0.698259   -0.870113
H      7.742556   -0.139931   -1.697152
H      9.154643   -0.260713   -0.615078
H      8.328378   -1.741959   -1.160174
C      0.014875    1.682771   -0.637809
H      0.093450    0.861888   -1.355125
H     -0.638769    2.438462   -1.079625
O     -1.540500    4.108454    0.810382
O     -0.065921    5.500716    1.622741
N     -0.590265    4.453123    1.439291
*
