%chk=CURCUMIN-OPT-FREQ-TS-CBSQB3-6-311G-D-298-cont.chk
# opt=(calcfc,ts,noeigen) freq=noraman cbs-qb3
scrf=(smd,solvent=generic,read) temperature=298.15

TS1 - reacao 1

0 2
 C                  2.24162900    0.86262700    0.82549200
 H                  1.80645300    1.85682900    0.82787700
 C                  1.52854100   -0.14957800    1.35820200
 H                  1.90300500   -1.16551200    1.40850400
 C                  0.18184100   -0.01242800    1.93745400
 O                 -0.40789100   -1.00395100    2.34243400
 C                  3.57804900    0.82250300    0.24858400
 C                  4.28841500    2.02430600    0.14940700
 C                  4.29068200   -0.34877500   -0.12831300
 C                  5.59106300    2.08189900   -0.33051200
 H                  3.80109700    2.94014000    0.46230000
 C                  5.56958900   -0.30832200   -0.70674200
 H                  4.78655600   -0.83436100    1.67030700
 C                  6.24118100    0.92614700   -0.76232000
 H                  6.10316000    3.03637700   -0.39557800
 O                  7.48743600    0.92390800   -1.28874800
 H                  7.83192000    1.82757300   -1.30953400
 O                  6.09164700   -1.44145300   -1.23613500
 C                  7.19922000   -2.03725000   -0.52013500
 H                  6.89794800   -2.28914700    0.49936200
 H                  7.44412300   -2.94728200   -1.06527500
 H                  8.06094200   -1.36852100   -0.50913000
 C                 -3.12237700    0.47412400    0.91023000
 H                 -2.72571200    0.01785000    1.81232400
 C                 -2.38086800    1.41298100    0.28390400
 H                 -2.71785700    1.88011000   -0.63617100
 C                 -1.06635300    1.88336500    0.72628500
 O                 -0.43880000    2.69178800    0.05337600
 C                 -4.42129100   -0.03905800    0.49767400
 C                 -5.02851200   -1.04266700    1.26884900
 C                 -5.11072800    0.42806600   -0.63869600
 C                 -6.26500600   -1.56795800    0.91603500
 H                 -4.52063900   -1.41986700    2.14948100
 C                 -6.34323800   -0.08553200   -1.00193200
 H                 -4.68830900    1.20006500   -1.27041700
 C                 -6.93069900   -1.10492200   -0.21884400
 H                 -6.71835300   -2.35238200    1.51459200
 O                 -8.12691100   -1.59952500   -0.62595000
 H                 -8.41449400   -2.28687300   -0.00975200
 O                 -6.94177300    0.35753000   -2.15189600
 C                 -8.14090300    1.13026200   -1.97153700
 H                 -7.93854600    2.02028300   -1.36617900
 H                 -8.45580800    1.43670900   -2.96893700
 H                 -8.93247600    0.53864800   -1.50683200
 C                 -0.47330000    1.36875800    2.04719900
 H                 -1.24950200    1.28571100    2.80718800
 H                  0.25632500    2.11031300    2.37277400
 O                  3.86096600   -2.61937300    0.27502200
 O                  2.72353300   -1.60384200   -1.26570000
 N                  3.56041500   -1.63408900   -0.37826200

