%oldchk=/home/natrosa/MOSSRI/REACAO-2/B3LYP-6-31G-D/CURCUMIN-OPT-FREQ-Prod-B3LYP-6-311G-D-298.chk
%chk=CURCUMIN-Prod-2-B3LYP-6-311G-D-298-NBO.chk
# pop=nbo b3lyp/6-311g(d) scrf=(smd,solvent=generic,read) temperature=298.15 Geom=Check Guess=Read

Reagente 1 

0 2

Eps=7
EpsInf=1.85341
HbondAcidity=0
HbondBasicity=0.48
SurfaceTensionAtInterface=60.62
CarbonAromaticity=0
ElectronegativeHalogenicity=0

