%chk=CURCUMIN-IRC-TS2-B3LYP-6-311G-D-298.chk
# irc=(calcfc,maxpoints=30) b3lyp/6-311g(d) scrf=(smd,solvent=generic,read) temperature=298.15

IRC

0 2
 C                 -2.53028600    0.30006900   -0.18442300
 H                 -2.02286600    0.58664400   -1.10151900
 C                 -1.94279400    0.58426800    1.00089800
 H                 -2.41363200    0.31520700    1.94135900
 C                 -0.65529400    1.25753900    1.17145000
 O                 -0.17874000    1.44612600    2.28310500
 C                 -3.80822900   -0.35517600   -0.39390500
 C                 -4.26130200   -0.54905300   -1.71070600
 C                 -4.62356200   -0.81665600    0.66064000
 C                 -5.47747300   -1.16528400   -1.96584100
 H                 -3.65469600   -0.20445900   -2.54179900
 C                 -5.83845800   -1.43167900    0.42239700
 H                 -4.32527600   -0.69158900    1.69516300
 C                 -6.28006300   -1.60554200   -0.91099900
 H                 -5.81952800   -1.29721400   -2.98877100
 O                 -7.48721500   -2.18766400   -1.09799400
 H                 -7.68407900   -2.24325400   -2.04424800
 O                 -6.62286700   -1.79866300    1.48091200
 C                 -6.78492800   -3.21256500    1.68140300
 H                 -5.81283800   -3.69404100    1.82869200
 H                 -7.38202800   -3.32086300    2.58616100
 H                 -7.30630000   -3.67904700    0.84380100
 C                  2.75623200    0.25586300   -0.11039800
 H                  1.84218900   -0.27506000   -0.36522000
 C                  2.68181300    1.57121600    0.18844300
 H                  3.56834100    2.14028700    0.45384200
 C                  1.45761400    2.37684000    0.22950500
 O                  1.49963400    3.56829100    0.49296500
 C                  3.95155300   -0.57451800   -0.13197700
 C                  3.83098800   -1.92914700   -0.48228000
 C                  5.23667500   -0.08744500    0.18094300
 C                  4.93969600   -2.76495900   -0.50902100
 H                  2.85500900   -2.33416600   -0.72909200
 C                  6.35067600   -0.90754600    0.15863500
 H                  5.39058900    0.94751800    0.46353500
 C                  6.20403800   -2.27080600   -0.18552900
 H                  4.82763300   -3.81437200   -0.76879300
 O                  7.31650900   -3.04542100   -0.16801300
 H                  7.08777000   -3.95346900   -0.41242800
 O                  7.56352400   -0.39835900    0.53726600
 C                  8.54525600   -0.28208700   -0.50517100
 H                  8.17457100    0.35562900   -1.31426000
 H                  9.41609700    0.18606800   -0.04741800
 H                  8.82496600   -1.25920900   -0.90286000
 C                  0.12040900    1.70451500   -0.04998700
 H                  0.13688000    0.97133600   -0.85706400
 H                 -0.57231800    2.62448300   -0.56301500
 O                 -1.27183500    3.55085700   -1.16510300
 O                 -2.65471600    5.01211800   -0.54159800
 N                 -1.95431600    4.12488900   -0.15326500

Eps=7
EpsInf=1.85341
HbondAcidity=0
HbondBasicity=0.48
SurfaceTensionAtInterface=60.62
CarbonAromaticity=0
ElectronegativeHalogenicity=0

