%chk=CURCUMIN-OPT-FREQ-TS2-B3LYP-6-311G-D-363.chk
# opt=(calcfc,noeigen,ts) freq b3lyp/6-311g(d) scrf=(smd,solvent=generic,read) temperature=363.15 SCF=(MaxCycle=500)

XXX

0 2
 C                 -2.47108400    0.27217200   -0.11793500
 H                 -1.87937200    0.41576700   -1.01751300
 C                 -1.99741100    0.74680000    1.06093900
 H                 -2.55621400    0.60959800    1.98167900
 C                 -0.73296500    1.46263800    1.24989500
 O                 -0.36601000    1.80104900    2.37034900
 C                 -3.72266300   -0.42311600   -0.33693400
 C                 -4.05203000   -0.82054600   -1.64775600
 C                 -4.63261900   -0.72931600    0.69813700
 C                 -5.23956100   -1.48088500   -1.91776000
 H                 -3.36940200   -0.59901500   -2.46124700
 C                 -5.81757900   -1.39374400    0.44486700
 H                 -4.42839300   -0.44405100    1.72365100
 C                 -6.13668200   -1.76486500   -0.88417400
 H                 -5.48710100   -1.76941400   -2.93550400
 O                 -7.32484100   -2.37583500   -1.09346400
 H                 -7.44487700   -2.57197400   -2.03497800
 O                 -6.70113800   -1.61013800    1.46598000
 C                 -6.86601900   -2.98025500    1.87239300
 H                 -5.91919400   -3.38180600    2.24642400
 H                 -7.59993300   -2.96978900    2.67702900
 H                 -7.23488500   -3.59816600    1.05211700
 C                  2.75179700    0.28863100   -0.11150200
 H                  1.84237500   -0.21458500   -0.42755700
 C                  2.68253700    1.58695000    0.26498200
 H                  3.57074700    2.12348100    0.58719500
 C                  1.46838800    2.40736100    0.31373700
 O                  1.53190300    3.59903500    0.58819200
 C                  3.93779700   -0.55127200   -0.15153400
 C                  3.81802700   -1.86714000   -0.63276400
 C                  5.21079200   -0.11526400    0.26968900
 C                  4.91564600   -2.71479100   -0.68409500
 H                  2.85091100   -2.22935900   -0.96605800
 C                  6.31448300   -0.94822100    0.22170900
 H                  5.35905400    0.88727900    0.65421400
 C                  6.16675200   -2.27258400   -0.24987800
 H                  4.80542400   -3.73205600   -1.05029300
 O                  7.26573300   -3.06689700   -0.24257100
 H                  7.04537900   -3.95010500   -0.57400600
 O                  7.51505600   -0.50205200    0.70563100
 C                  8.54029100   -0.28112800   -0.27763200
 H                  8.21591400    0.47028400   -1.00429600
 H                  9.40642600    0.09236200    0.26728100
 H                  8.80579200   -1.20641300   -0.79219300
 C                  0.12619300    1.75672600    0.04617100
 H                  0.14384700    0.95378800   -0.68964400
 H                 -0.52839600    2.66223600   -0.60735800
 O                 -1.15127900    3.52665500   -1.34207900
 O                 -2.80960400    4.80890700   -1.11220600
 N                 -2.12303000    3.99103600   -0.56156100

Eps=7
EpsInf=1.85341
HbondAcidity=0
HbondBasicity=0.48	
SurfaceTensionAtInterface=60.62
CarbonAromaticity=0
ElectronegativeHalogenicity=0

