%oldchk=/home/natrosa/MOSSRI/REACAO-1/B3LYP-6-311G/CURCUMIN-OPT-FREQ-Prod-1-B3LYP-6-311G-D-298.chk
%chk=CURCUMIN-OPT-FREQ-Prod-1-B3LYP-6-311G-D-363.chk
# freq=(readfc,noraman) Geom=Check Guess=Read b3lyp/6-311g(d) scrf=(smd,solvent=generic,read) temperature=363.15

Reagente 1 - 363.15K

0 2

Eps=7
EpsInf=1.85341
HbondAcidity=0
HbondBasicity=0.48
SurfaceTensionAtInterface=60.62
CarbonAromaticity=0
ElectronegativeHalogenicity=0

