# 
! Opt NumFreq wb97M-V 6-311+G(d) CPCM RIJDX
%maxcore 2000
%cpcm
epsilon 7 # Dielectric constant
refrac 1.85341 # Refractive index
end

* xyz 0 2
   C      2.042829    1.106421    1.258576
   H      1.761836    2.141701    1.431540
   C      1.305268    0.114726    1.809220
   H      1.565933   -0.933555    1.693875
   C      0.114112    0.346204    2.637719
   O     -0.415988   -0.584852    3.225830
   C      3.203166    0.925234    0.430263
   C      3.912121    2.016970   -0.034098
   C      3.635262   -0.451441    0.032054
   C      5.046062    1.880193   -0.832275
   H      3.577597    3.012575    0.239418
   C      4.908075   -0.528316   -0.738636
   H      3.659066   -1.153739    0.869316
   C      5.543506    0.594535   -1.178804
   H      5.569499    2.760681   -1.190807
   O      6.661168    0.443164   -1.939844
   H      7.042442    1.300968   -2.164049
   O      5.305886   -1.791580   -1.045738
   C      6.562847   -2.200105   -0.471667
   H      6.512263   -2.129179    0.617387
   H      6.704296   -3.236716   -0.768228
   H      7.377647   -1.585716   -0.853236
   C     -2.812924    0.679233    1.261490
   H     -2.557944    0.306133    2.250256
   C     -2.085980    1.676104    0.730942
   H     -2.302966    2.087247   -0.250832
   C     -0.952962    2.314323    1.414348
   O     -0.398528    3.284363    0.918645
   C     -3.954253    0.005835    0.636923
   C     -4.546968   -1.069998    1.302449
   C     -4.479223    0.392326   -0.605328
   C     -5.622639   -1.752123    0.746740
   H     -4.157334   -1.384293    2.265777
   C     -5.548883   -0.277793   -1.165001
   H     -4.062042    1.223833   -1.163655
   C     -6.128211   -1.365604   -0.489679
   H     -6.069807   -2.594283    1.267222
   O     -7.165938   -1.992671   -1.101114
   H     -7.489804   -2.721141   -0.556353
   O     -6.015259    0.089955   -2.404062
   C     -7.241728    0.830333   -2.351467
   H     -7.094913    1.763735   -1.800606
   H     -7.513762    1.051035   -3.381792
   H     -8.031406    0.241200   -1.880721
   C     -0.461916    1.754489    2.748182
   H     -1.281238    1.716536    3.468197
   H      0.297210    2.440701    3.129027
   O      2.118650   -2.177752   -0.601796
   O      2.177484   -0.422676   -1.850605
   N      2.531964   -1.074233   -0.890196
*


