%chk=CURCUMIN-OPT-FREQ-Reag-1-M06-2x-6-311G-D-298.chk
# opt=calcfc freq=noraman ub3lyp/6-311g(d) scrf=(smd,solvent=generic,read)
temperature=298.15

Reagente 1

0 2
 C                  2.20543200    0.97952000    0.72834100
 H                  1.77265900    1.96055900    0.55423700
 C                  1.46854400    0.05783500    1.40773500
 H                  1.83795200   -0.94843700    1.57361400
 C                  0.13104000    0.28569200    1.95380200
 O                 -0.47422600   -0.62808400    2.50385700
 C                  3.52163300    0.81694200    0.19221300
 C                  4.15835600    1.88354700   -0.42761700
 C                  4.26549100   -0.48219600    0.28756400
 C                  5.49154600    1.82397500   -0.82970900
 H                  3.61424800    2.81323400   -0.55814900
 C                  5.71942600   -0.44375000   -0.03692600
 H                  4.09677300   -1.00488100    1.22902300
 C                  6.29015000    0.68192700   -0.59473900
 H                  5.95217600    2.69228900   -1.29115600
 O                  7.62394800    0.69176700   -0.88432500
 H                  7.86797400    1.55143100   -1.25356000
 O                  6.30355800   -1.62011800    0.26037900
 C                  7.49939100   -2.06628100   -0.41182100
 H                  8.37003300   -1.50354800   -0.08154200
 H                  7.60184900   -3.11324300   -0.13232900
 H                  7.38274700   -1.98166100   -1.49284200
 C                 -3.16707000    0.60780400    0.86680700
 H                 -2.77303800    0.29668600    1.83023300
 C                 -2.42505200    1.44151100    0.10664100
 H                 -2.76160400    1.75978700   -0.87596300
 C                 -1.11400400    1.98325500    0.47452900
 O                 -0.49481500    2.68766100   -0.31381600
 C                 -4.46213500    0.03079300    0.53222200
 C                 -5.06803900   -0.84625500    1.44555800
 C                 -5.14943400    0.31170900   -0.66531000
 C                 -6.29881800   -1.42925700    1.17176000
 H                 -4.56325400   -1.08096800    2.37695800
 C                 -6.37599500   -0.26189100   -0.95228200
 H                 -4.72999500    0.98189000   -1.40717700
 C                 -6.96087000   -1.15312500   -0.02468100
 H                 -6.74888100   -2.11542400    1.88421700
 O                 -8.15089300   -1.71560600   -0.35572500
 H                 -8.44082900   -2.30646400    0.35361100
 O                 -6.96812000   -0.00467300   -2.16049200
 C                 -8.17700300    0.76882600   -2.10998800
 H                 -7.99560800    1.73753600   -1.63291700
 H                 -8.47652200    0.92785400   -3.14553800
 H                 -8.97018000    0.23871200   -1.57978300
 C                 -0.51541600    1.67525600    1.85384500
 H                 -1.28482700    1.71871600    2.62443100
 H                  0.21765800    2.45540000    2.05946400
 O                  2.82872500   -2.33516600   -0.30850100
 O                  3.90427500   -1.38688900   -1.93193500
 N                  3.60399900   -1.51223200   -0.75971800

